-209.0 9.0 0.0 4.0 10.0 0.0 9.0 9.0 10.0 9.0 6.0 4.0 1.0 1.0 9.0 0.0 6.0 0.0 6.0 10.0 2.0 1.0 0.0 1.0 4.0 0.0 6.0 2.0 9.0 9.0 6.0 4.0 0.0 1.0 8.0 1.0 7.0 8.0 10.0 0.0 8.0 5.0 2.0 2.0 1.0 9.0 
9.0 -223.0 1.0 2.0 6.0 7.0 1.0 5.0 2.0 9.0 7.0 7.0 1.0 9.0 6.0 4.0 3.0 6.0 3.0 5.0 6.0 2.0 3.0 5.0 3.0 10.0 9.0 10.0 10.0 3.0 7.0 7.0 10.0 9.0 2.0 8.0 5.0 2.0 10.0 8.0 1.0 0.0 0.0 0.0 0.0 0.0 
0.0 1.0 -207.0 10.0 6.0 0.0 0.0 10.0 4.0 10.0 8.0 4.0 7.0 1.0 7.0 4.0 1.0 0.0 9.0 3.0 2.0 2.0 6.0 1.0 10.0 7.0 7.0 1.0 3.0 7.0 0.0 1.0 5.0 8.0 9.0 3.0 6.0 4.0 2.0 8.0 0.0 7.0 3.0 8.0 10.0 2.0 
4.0 2.0 10.0 -224.0 0.0 4.0 5.0 2.0 1.0 10.0 8.0 10.0 2.0 4.0 4.0 6.0 5.0 0.0 9.0 4.0 0.0 5.0 7.0 10.0 5.0 2.0 2.0 10.0 7.0 8.0 2.0 10.0 3.0 1.0 9.0 6.0 7.0 10.0 1.0 0.0 3.0 2.0 8.0 3.0 7.0 6.0 
10.0 6.0 6.0 0.0 -209.0 0.0 1.0 4.0 0.0 4.0 4.0 6.0 9.0 7.0 1.0 10.0 8.0 2.0 0.0 0.0 9.0 4.0 10.0 2.0 4.0 0.0 2.0 7.0 4.0 2.0 6.0 7.0 5.0 10.0 4.0 8.0 8.0 9.0 0.0 0.0 0.0 4.0 7.0 6.0 7.0 6.0 
0.0 7.0 0.0 4.0 0.0 -220.0 6.0 10.0 7.0 3.0 3.0 4.0 3.0 1.0 7.0 1.0 5.0 5.0 0.0 10.0 9.0 10.0 8.0 7.0 2.0 7.0 4.0 8.0 7.0 9.0 1.0 1.0 6.0 5.0 4.0 1.0 8.0 0.0 5.0 5.0 3.0 7.0 9.0 9.0 3.0 6.0 
9.0 1.0 0.0 5.0 1.0 6.0 -230.0 8.0 5.0 1.0 8.0 7.0 2.0 9.0 3.0 1.0 3.0 8.0 3.0 6.0 0.0 10.0 5.0 0.0 10.0 9.0 0.0 2.0 4.0 9.0 9.0 7.0 1.0 7.0 6.0 2.0 1.0 8.0 9.0 9.0 6.0 10.0 7.0 6.0 1.0 6.0 
9.0 5.0 10.0 2.0 4.0 10.0 8.0 -263.0 9.0 6.0 8.0 10.0 7.0 10.0 8.0 2.0 6.0 3.0 4.0 8.0 3.0 1.0 1.0 10.0 10.0 1.0 0.0 4.0 1.0 9.0 7.0 3.0 8.0 7.0 10.0 3.0 6.0 1.0 5.0 5.0 10.0 7.0 7.0 8.0 5.0 2.0 
10.0 2.0 4.0 1.0 0.0 7.0 5.0 9.0 -246.0 4.0 8.0 2.0 0.0 9.0 1.0 7.0 3.0 5.0 10.0 6.0 9.0 7.0 6.0 7.0 7.0 10.0 1.0 2.0 8.0 7.0 10.0 2.0 5.0 6.0 3.0 6.0 5.0 8.0 3.0 9.0 4.0 8.0 9.0 0.0 2.0 9.0 
9.0 9.0 10.0 10.0 4.0 3.0 1.0 6.0 4.0 -211.0 3.0 5.0 7.0 9.0 4.0 6.0 0.0 0.0 1.0 1.0 5.0 2.0 6.0 10.0 2.0 3.0 3.0 6.0 6.0 6.0 3.0 3.0 9.0 0.0 6.0 0.0 4.0 9.0 6.0 5.0 9.0 3.0 8.0 0.0 5.0 0.0 
6.0 7.0 8.0 8.0 4.0 3.0 8.0 8.0 8.0 3.0 -235.0 9.0 1.0 5.0 9.0 7.0 10.0 4.0 6.0 3.0 2.0 0.0 5.0 2.0 0.0 4.0 8.0 3.0 1.0 10.0 10.0 10.0 2.0 8.0 4.0 7.0 8.0 5.0 1.0 9.0 10.0 7.0 0.0 0.0 2.0 0.0 
4.0 7.0 4.0 10.0 6.0 4.0 7.0 10.0 2.0 5.0 9.0 -236.0 7.0 1.0 8.0 9.0 1.0 0.0 9.0 4.0 7.0 4.0 4.0 9.0 8.0 2.0 0.0 6.0 4.0 3.0 6.0 3.0 1.0 9.0 0.0 0.0 6.0 1.0 6.0 9.0 5.0 8.0 2.0 8.0 10.0 8.0 
1.0 1.0 7.0 2.0 9.0 3.0 2.0 7.0 0.0 7.0 1.0 7.0 -214.0 5.0 5.0 2.0 6.0 7.0 10.0 1.0 1.0 2.0 6.0 4.0 1.0 7.0 3.0 5.0 4.0 9.0 2.0 1.0 0.0 10.0 0.0 10.0 6.0 10.0 10.0 4.0 1.0 8.0 6.0 8.0 9.0 4.0 
1.0 9.0 1.0 4.0 7.0 1.0 9.0 10.0 9.0 9.0 5.0 1.0 5.0 -224.0 0.0 3.0 9.0 10.0 3.0 1.0 5.0 9.0 6.0 3.0 5.0 2.0 2.0 9.0 9.0 1.0 9.0 9.0 1.0 0.0 0.0 2.0 0.0 6.0 9.0 2.0 1.0 10.0 5.0 10.0 8.0 4.0 
9.0 6.0 7.0 4.0 1.0 7.0 3.0 8.0 1.0 4.0 9.0 8.0 5.0 0.0 -201.0 7.0 2.0 8.0 1.0 3.0 5.0 3.0 1.0 4.0 4.0 2.0 2.0 4.0 5.0 0.0 0.0 0.0 1.0 0.0 10.0 3.0 4.0 7.0 5.0 2.0 6.0 10.0 9.0 9.0 7.0 5.0 
0.0 4.0 4.0 6.0 10.0 1.0 1.0 2.0 7.0 6.0 7.0 9.0 2.0 3.0 7.0 -213.0 1.0 3.0 3.0 1.0 7.0 1.0 10.0 3.0 0.0 4.0 4.0 5.0 9.0 8.0 2.0 2.0 4.0 4.0 10.0 1.0 10.0 6.0 3.0 2.0 9.0 5.0 8.0 7.0 9.0 3.0 
6.0 3.0 1.0 5.0 8.0 5.0 3.0 6.0 3.0 0.0 10.0 1.0 6.0 9.0 2.0 1.0 -235.0 10.0 9.0 9.0 6.0 2.0 6.0 3.0 6.0 9.0 4.0 6.0 8.0 0.0 7.0 3.0 9.0 1.0 2.0 4.0 0.0 1.0 9.0 6.0 10.0 8.0 6.0 5.0 7.0 10.0 
0.0 6.0 0.0 0.0 2.0 5.0 8.0 3.0 5.0 0.0 4.0 0.0 7.0 10.0 8.0 3.0 10.0 -183.0 4.0 0.0 9.0 10.0 5.0 0.0 3.0 9.0 2.0 0.0 8.0 3.0 2.0 10.0 3.0 0.0 10.0 0.0 2.0 4.0 2.0 1.0 1.0 9.0 6.0 3.0 6.0 0.0 
6.0 3.0 9.0 9.0 0.0 0.0 3.0 4.0 10.0 1.0 6.0 9.0 10.0 3.0 1.0 3.0 9.0 4.0 -268.0 10.0 4.0 2.0 8.0 4.0 9.0 4.0 10.0 10.0 5.0 8.0 6.0 10.0 10.0 1.0 7.0 9.0 8.0 1.0 8.0 7.0 4.0 7.0 1.0 8.0 7.0 10.0 
10.0 5.0 3.0 4.0 0.0 10.0 6.0 8.0 6.0 1.0 3.0 4.0 1.0 1.0 3.0 1.0 9.0 0.0 10.0 -200.0 0.0 1.0 2.0 10.0 3.0 10.0 6.0 7.0 2.0 9.0 1.0 6.0 3.0 4.0 2.0 0.0 3.0 10.0 6.0 5.0 1.0 8.0 2.0 10.0 1.0 3.0 
2.0 6.0 2.0 0.0 9.0 9.0 0.0 3.0 9.0 5.0 2.0 7.0 1.0 5.0 5.0 7.0 6.0 9.0 4.0 0.0 -222.0 10.0 3.0 9.0 6.0 8.0 2.0 0.0 2.0 8.0 7.0 8.0 1.0 9.0 5.0 0.0 10.0 4.0 7.0 2.0 3.0 0.0 4.0 9.0 4.0 10.0 
1.0 2.0 2.0 5.0 4.0 10.0 10.0 1.0 7.0 2.0 0.0 4.0 2.0 9.0 3.0 1.0 2.0 10.0 2.0 1.0 10.0 -204.0 4.0 10.0 6.0 3.0 1.0 10.0 0.0 6.0 5.0 5.0 9.0 0.0 9.0 4.0 2.0 7.0 9.0 2.0 1.0 10.0 0.0 10.0 0.0 3.0 
0.0 3.0 6.0 7.0 10.0 8.0 5.0 1.0 6.0 6.0 5.0 4.0 6.0 6.0 1.0 10.0 6.0 5.0 8.0 2.0 3.0 4.0 -214.0 10.0 1.0 1.0 9.0 8.0 7.0 6.0 6.0 2.0 4.0 7.0 4.0 3.0 2.0 2.0 10.0 3.0 3.0 7.0 0.0 0.0 2.0 5.0 
1.0 5.0 1.0 10.0 2.0 7.0 0.0 10.0 7.0 10.0 2.0 9.0 4.0 3.0 4.0 3.0 3.0 0.0 4.0 10.0 9.0 10.0 10.0 -234.0 4.0 8.0 2.0 8.0 7.0 6.0 1.0 7.0 9.0 0.0 7.0 5.0 7.0 1.0 0.0 10.0 5.0 7.0 0.0 5.0 1.0 10.0 
4.0 3.0 10.0 5.0 4.0 2.0 10.0 10.0 7.0 2.0 0.0 8.0 1.0 5.0 4.0 0.0 6.0 3.0 9.0 3.0 6.0 6.0 1.0 4.0 -217.0 4.0 5.0 0.0 0.0 7.0 4.0 6.0 8.0 1.0 10.0 1.0 3.0 8.0 5.0 10.0 4.0 7.0 6.0 9.0 2.0 4.0 
0.0 10.0 7.0 2.0 0.0 7.0 9.0 1.0 10.0 3.0 4.0 2.0 7.0 2.0 2.0 4.0 9.0 9.0 4.0 10.0 8.0 3.0 1.0 8.0 4.0 -239.0 8.0 2.0 3.0 0.0 0.0 10.0 4.0 10.0 6.0 10.0 7.0 9.0 2.0 6.0 3.0 7.0 8.0 10.0 0.0 8.0 
6.0 9.0 7.0 2.0 2.0 4.0 0.0 0.0 1.0 3.0 8.0 0.0 3.0 2.0 2.0 4.0 4.0 2.0 10.0 6.0 2.0 1.0 9.0 2.0 5.0 8.0 -213.0 8.0 3.0 3.0 0.0 8.0 5.0 2.0 5.0 5.0 7.0 4.0 6.0 10.0 10.0 10.0 9.0 0.0 7.0 9.0 
2.0 10.0 1.0 10.0 7.0 8.0 2.0 4.0 2.0 6.0 3.0 6.0 5.0 9.0 4.0 5.0 6.0 0.0 10.0 7.0 0.0 10.0 8.0 8.0 0.0 2.0 8.0 -244.0 0.0 9.0 10.0 7.0 3.0 6.0 5.0 8.0 9.0 5.0 8.0 10.0 2.0 10.0 0.0 2.0 7.0 0.0 
9.0 10.0 3.0 7.0 4.0 7.0 4.0 1.0 8.0 6.0 1.0 4.0 4.0 9.0 5.0 9.0 8.0 8.0 5.0 2.0 2.0 0.0 7.0 7.0 0.0 3.0 3.0 0.0 -214.0 8.0 1.0 3.0 2.0 0.0 4.0 7.0 10.0 0.0 10.0 6.0 0.0 9.0 3.0 3.0 2.0 10.0 
9.0 3.0 7.0 8.0 2.0 9.0 9.0 9.0 7.0 6.0 10.0 3.0 9.0 1.0 0.0 8.0 0.0 3.0 8.0 9.0 8.0 6.0 6.0 6.0 7.0 0.0 3.0 9.0 8.0 -261.0 4.0 7.0 2.0 7.0 9.0 3.0 4.0 10.0 1.0 10.0 6.0 7.0 2.0 1.0 7.0 8.0 
6.0 7.0 0.0 2.0 6.0 1.0 9.0 7.0 10.0 3.0 10.0 6.0 2.0 9.0 0.0 2.0 7.0 2.0 6.0 1.0 7.0 5.0 6.0 1.0 4.0 0.0 0.0 10.0 1.0 4.0 -185.0 1.0 4.0 2.0 7.0 2.0 7.0 3.0 9.0 0.0 5.0 0.0 6.0 0.0 4.0 1.0 
4.0 7.0 1.0 10.0 7.0 1.0 7.0 3.0 2.0 3.0 10.0 3.0 1.0 9.0 0.0 2.0 3.0 10.0 10.0 6.0 8.0 5.0 2.0 7.0 6.0 10.0 8.0 7.0 3.0 7.0 1.0 -239.0 10.0 3.0 4.0 4.0 3.0 1.0 10.0 7.0 3.0 6.0 6.0 8.0 7.0 4.0 
0.0 10.0 5.0 3.0 5.0 6.0 1.0 8.0 5.0 9.0 2.0 1.0 0.0 1.0 1.0 4.0 9.0 3.0 10.0 3.0 1.0 9.0 4.0 9.0 8.0 4.0 5.0 3.0 2.0 2.0 4.0 10.0 -215.0 10.0 8.0 3.0 2.0 5.0 10.0 10.0 6.0 2.0 0.0 9.0 0.0 3.0 
1.0 9.0 8.0 1.0 10.0 5.0 7.0 7.0 6.0 0.0 8.0 9.0 10.0 0.0 0.0 4.0 1.0 0.0 1.0 4.0 9.0 0.0 7.0 0.0 1.0 10.0 2.0 6.0 0.0 7.0 2.0 3.0 10.0 -223.0 9.0 10.0 5.0 0.0 3.0 9.0 3.0 7.0 10.0 8.0 6.0 5.0 
8.0 2.0 9.0 9.0 4.0 4.0 6.0 10.0 3.0 6.0 4.0 0.0 0.0 0.0 10.0 10.0 2.0 10.0 7.0 2.0 5.0 9.0 4.0 7.0 10.0 6.0 5.0 5.0 4.0 9.0 7.0 4.0 8.0 9.0 -257.0 10.0 0.0 5.0 10.0 0.0 8.0 7.0 6.0 1.0 9.0 3.0 
1.0 8.0 3.0 6.0 8.0 1.0 2.0 3.0 6.0 0.0 7.0 0.0 10.0 2.0 3.0 1.0 4.0 0.0 9.0 0.0 0.0 4.0 3.0 5.0 1.0 10.0 5.0 8.0 7.0 3.0 2.0 4.0 3.0 10.0 10.0 -211.0 7.0 10.0 6.0 0.0 6.0 5.0 9.0 2.0 7.0 10.0 
7.0 5.0 6.0 7.0 8.0 8.0 1.0 6.0 5.0 4.0 8.0 6.0 6.0 0.0 4.0 10.0 0.0 2.0 8.0 3.0 10.0 2.0 2.0 7.0 3.0 7.0 7.0 9.0 10.0 4.0 7.0 3.0 2.0 5.0 0.0 7.0 -231.0 10.0 5.0 0.0 3.0 4.0 7.0 4.0 4.0 5.0 
8.0 2.0 4.0 10.0 9.0 0.0 8.0 1.0 8.0 9.0 5.0 1.0 10.0 6.0 7.0 6.0 1.0 4.0 1.0 10.0 4.0 7.0 2.0 1.0 8.0 9.0 4.0 5.0 0.0 10.0 3.0 1.0 5.0 0.0 5.0 10.0 10.0 -231.0 3.0 1.0 6.0 2.0 10.0 10.0 3.0 2.0 
10.0 10.0 2.0 1.0 0.0 5.0 9.0 5.0 3.0 6.0 1.0 6.0 10.0 9.0 5.0 3.0 9.0 2.0 8.0 6.0 7.0 9.0 10.0 0.0 5.0 2.0 6.0 8.0 10.0 1.0 9.0 10.0 10.0 3.0 10.0 6.0 5.0 3.0 -261.0 7.0 2.0 8.0 10.0 1.0 3.0 6.0 
0.0 8.0 8.0 0.0 0.0 5.0 9.0 5.0 9.0 5.0 9.0 9.0 4.0 2.0 2.0 2.0 6.0 1.0 7.0 5.0 2.0 2.0 3.0 10.0 10.0 6.0 10.0 10.0 6.0 10.0 0.0 7.0 10.0 9.0 0.0 0.0 0.0 1.0 7.0 -216.0 0.0 3.0 4.0 3.0 6.0 1.0 
8.0 1.0 0.0 3.0 0.0 3.0 6.0 10.0 4.0 9.0 10.0 5.0 1.0 1.0 6.0 9.0 10.0 1.0 4.0 1.0 3.0 1.0 3.0 5.0 4.0 3.0 10.0 2.0 0.0 6.0 5.0 3.0 6.0 3.0 8.0 6.0 3.0 6.0 2.0 0.0 -205.0 8.0 5.0 10.0 10.0 1.0 
5.0 0.0 7.0 2.0 4.0 7.0 10.0 7.0 8.0 3.0 7.0 8.0 8.0 10.0 10.0 5.0 8.0 9.0 7.0 8.0 0.0 10.0 7.0 7.0 7.0 7.0 10.0 10.0 9.0 7.0 0.0 6.0 2.0 7.0 7.0 5.0 4.0 2.0 8.0 3.0 8.0 -283.0 7.0 8.0 4.0 5.0 
2.0 0.0 3.0 8.0 7.0 9.0 7.0 7.0 9.0 8.0 0.0 2.0 6.0 5.0 9.0 8.0 6.0 6.0 1.0 2.0 4.0 0.0 0.0 0.0 6.0 8.0 9.0 0.0 3.0 2.0 6.0 6.0 0.0 10.0 6.0 9.0 7.0 10.0 10.0 4.0 5.0 7.0 -228.0 3.0 7.0 1.0 
2.0 0.0 8.0 3.0 6.0 9.0 6.0 8.0 0.0 0.0 0.0 8.0 8.0 10.0 9.0 7.0 5.0 3.0 8.0 10.0 9.0 10.0 0.0 5.0 9.0 10.0 0.0 2.0 3.0 1.0 0.0 8.0 9.0 8.0 1.0 2.0 4.0 10.0 1.0 3.0 10.0 8.0 3.0 -235.0 3.0 6.0 
1.0 0.0 10.0 7.0 7.0 3.0 1.0 5.0 2.0 5.0 2.0 10.0 9.0 8.0 7.0 9.0 7.0 6.0 7.0 1.0 4.0 0.0 2.0 1.0 2.0 0.0 7.0 7.0 2.0 7.0 4.0 7.0 0.0 6.0 9.0 7.0 4.0 3.0 3.0 6.0 10.0 4.0 7.0 3.0 -222.0 10.0 
9.0 0.0 2.0 6.0 6.0 6.0 6.0 2.0 9.0 0.0 0.0 8.0 4.0 4.0 5.0 3.0 10.0 0.0 10.0 3.0 10.0 3.0 5.0 10.0 4.0 8.0 9.0 0.0 10.0 8.0 1.0 4.0 3.0 5.0 3.0 10.0 5.0 2.0 6.0 1.0 1.0 5.0 1.0 6.0 10.0 -223.0 

